Route #1: 93 75
Route #2: 82 60 59
Route #3: 74 13 4
Route #4: 31 46 35
Route #5: 32 33 53 73 95 24
Route #6: 34 64 96 48 26 47 38
Route #7: 14 49 6 37 87
Route #8: 8 17
Route #9: 66 84 90 68
Route #10: 20 41 22 15
Route #11: 54 70 1
Route #12: 27 97 19
Route #13: 28 42 78 65 25
Route #14: 71 62 99 98 89
Route #15: 63 77 3
Route #16: 58 12 5
Route #17: 57 72 36 29 43 45 2 7
Route #18: 83 51 81
Route #19: 80 94 56 21
Route #20: 86 9 92
Route #21: 30 85 11 79
Route #22: 50 91 52
Route #23: 100 61 23
Route #24: 39 10 18
Route #25: 76 55 16 69
Route #26: 40 88 67 44
Cost 27591.0000
Time 16.0001